97
16
0 17 18 20 21 26 27 29 30 31 33 35 36 41 42 43 45 51 53 55 56 58 59 61 63 66 67 70 71 74 75 77 79 81 84 85 86 88 89 90 94
1 17 20 22 24 29 33 36 37 38 41 42 45 50 51 52 55 56 58 59 60 62 66 67 69 70 72 73 74 78 79 80 81 83 86 88 90 93 96
2 16 17 18 19 20 24 26 30 38 41 42 43 44 48 51 52 54 55 58 59 62 66 67 68 70 72 74 75 78 79 80 81 83 85 86 89 91 92 93 94
3 16 17 19 24 26 29 30 32 33 35 37 41 43 45 49 50 51 52 53 54 55 56 58 59 62 63 66 69 72 73 75 77 78 79 80 81 83 84 85 86 89 90 91 92 93 94 96
4 17 19 20 23 25 26 27 29 31 33 34 37 38 39 41 42 43 44 45 51 52 55 56 61 62 68 69 72 74 75 77 78 79 81 82 86 89 90 92 94
5 18 19 20 22 26 31 32 33 34 35 37 38 42 43 44 45 51 52 53 55 56 58 59 66 68 69 71 74 75 77 78 85 88 89 91 92 94
6 19 20 22 26 29 30 31 33 35 37 38 41 42 43 44 47 48 50 51 52 53 54 55 56 57 62 63 65 66 68 69 71 72 73 76 77 78 79 82 85 88 89 90 91 95
7 16 17 18 23 26 29 30 35 36 37 38 41 42 43 44 45 46 49 52 58 60 65 66 67 68 69 72 74 75 77 78 80 82 83 85 88 89 92 95
8 16 19 20 24 26 29 30 33 34 35 41 45 47 48 49 50 52 56 59 69 71 72 83 84 88 89 90 91 93
9 16 17 18 19 24 25 26 31 35 36 38 43 44 49 57 67 68 69 72 75 77 81 86 88 90 91 92 93 94 95
10 16 20 21 28 29 30 33 38 39 41 43 55 56 57 58 63 64 66 67 68 70 75 80 85 86 87 88 91 94
11 17 19 21 22 25 31 32 33 35 38 40 41 44 48 53 56 57 62 65 69 75 82 92 96
12 16 28 29 37 40 42 53 54 56 61 62 63 64 74 75 76 79 84 85 86 88
13 18 30 34 43 46 48 49 53 65 69 75 85
14 27 52 59 60 71 90 91 92
15 19 38 47 61 79
